model/insulin-infusion/insulin-infusion_0_0_0_c.smt2.output
At line 96: syntax error, unexpected ')'
